c description: Random 3-CNF over 16 variables and 80 clauses
p cnf 16 80
-8 -12 -16 0
-3 -4 8 0
1 -2 -16 0
-2 -4 16 0
5 -10 -12 0
5 -11 -16 0
1 -3 -6 0
1 9 -16 0
-4 -11 12 0
3 4 7 0
-4 5 12 0
-2 11 13 0
4 9 13 0
-2 -7 14 0
-9 -10 -12 0
1 -8 14 0
-2 -14 -15 0
5 -13 14 0
-9 -10 14 0
9 -11 -13 0
3 -4 7 0
-1 -2 -4 0
-1 -2 3 0
3 -8 -16 0
7 10 16 0
-8 9 -11 0
9 -10 13 0
-2 -7 9 0
4 7 -8 0
-8 14 15 0
-7 8 -14 0
9 10 12 0
-7 -8 -16 0
1 12 -16 0
4 6 -7 0
1 -10 15 0
-5 8 -10 0
-1 8 11 0
2 -4 -7 0
1 -8 -10 0
-4 -8 16 0
-2 -6 15 0
11 12 14 0
5 13 14 0
-3 10 -13 0
-2 3 -6 0
1 -2 3 0
7 -10 14 0
-8 -9 16 0
3 -7 11 0
-4 7 -13 0
-2 -6 -16 0
4 -11 -15 0
2 14 16 0
6 -7 -14 0
2 -3 13 0
7 -8 -11 0
6 9 15 0
1 6 7 0
-6 8 -15 0
6 7 -11 0
-2 3 11 0
-2 3 -11 0
6 10 -12 0
-1 13 -15 0
-9 14 -15 0
3 -5 8 0
10 -13 -15 0
-7 -8 -10 0
2 9 10 0
2 10 16 0
1 -10 -12 0
3 7 15 0
1 -9 16 0
-6 -7 -15 0
-8 12 -13 0
-1 -14 -16 0
11 -14 15 0
3 -8 11 0
7 12 -15 0